data/mip_solutions/furman_sahinidis/transshipment/6sp1_cplex.sol
Elapsed time: 0.0232791900635
Nodes explored: 0
Upper bound: 6.0
Lower bound: 6.0
y[0,0]=1
y[0,1]=1
y[0,2]=1
y[1,2]=1
y[2,1]=1
y[2,3]=1
q[0,0,2]=800.0
q[0,0,3]=2880.0
q[0,0,4]=320.0
q[0,0,5]=1280.0
q[0,1,3]=2726.0
q[0,1,4]=80.0
q[0,2,2]=34.0
q[1,2,2]=493.0
q[1,2,3]=4743.0
q[2,1,3]=1532.8
q[2,1,4]=575.2
q[2,3,5]=5956.0
r[0,3]=566.0
r[0,5]=160.0
r[1,1]=1666.0
r[1,2]=1904.0
r[1,3]=2601.0
r[2,4]=4515.2
r[2,5]=4612.0
